language ESSENCE' 1.0
letting values be [[9, 3, 5, 1, 2, 7, 0, 4, 8], [4, 2, 7, 3, 6, 8, 0, 5, 0], [1, 6, 8, 0, 9, 5, 0, 2, 7], [5, 1, 0, 0, 8, 6, 0, 9, 3], [2, 0, 3, 9, 0, 4, 5, 0, 6], [0, 8, 9, 0, 7, 0, 0, 1, 0], [3, 0, 1, 6, 0, 0, 8, 7, 2], [0, 4, 0, 0, 3, 1, 0, 0, 0], [8, 0, 6, 0, 0, 0, 4, 3, 1]]